
===== New CPLEX run =====
Instance: /home/yorig/tuner/mpils-tests/instances/miplib/easy/lotsize.mps
Config: /scratch/yorig/mpils-results-grid-seconds-5-no-mip-start/easy/16proc/seed-3/4_lotsize_seed-3_20260502_223218/expansion/config_param_CPXPARAM_Emphasis_Numerical_1_iter_4.prm
========================

Selected objective sense:  MINIMIZE
Selected objective  name:  R1921
Selected RHS        name:  B
Selected bound      name:  BOUND
Version identifier: 22.1.2.0 | 2024-11-26 | 0edbb82fd
CPXPARAM_Simplex_DGradient                       4
CPXPARAM_Threads                                 8
CPXPARAM_Emphasis_Numerical                      1
CPXPARAM_Parallel                                1
CPXPARAM_MIP_Cuts_Cliques                        2
CPXPARAM_Preprocessing_CoeffReduce               0
CPXPARAM_MIP_Strategy_SubAlgorithm               2
CPXPARAM_MIP_Strategy_VariableSelect             4
CPXPARAM_MIP_Cuts_FlowCovers                     -1
CPXPARAM_MIP_Cuts_Implied                        2
CPXPARAM_MIP_Limits_GomoryCand                   800
CPXPARAM_MIP_Cuts_Gomory                         2
CPXPARAM_MIP_Cuts_MIRCut                         1
CPXPARAM_MIP_Limits_AggForCut                    10
CPXPARAM_Emphasis_MIP                            5
CPXPARAM_MIP_Strategy_BBInterval                 5
CPXPARAM_TimeLimit                               5
CPXPARAM_MIP_Limits_CutsFactor                   4
Tried aggregator 1 time.
MIP Presolve eliminated 590 rows and 0 columns.
MIP Presolve added 1190 rows and 0 columns.
Reduced MIP has 2520 rows, 2985 columns, and 7765 nonzeros.
Reduced MIP has 1195 binaries, 0 generals, 0 SOSs, and 0 indicators.
Presolve time = 0.00 sec. (4.28 ticks)
Probing fixed 0 vars, tightened 5146 bounds.
Probing time = 0.01 sec. (18.21 ticks)
Tried aggregator 2 times.
Detecting symmetries...
MIP Presolve eliminated 5 rows and 0 columns.
MIP Presolve modified 616 coefficients.
Aggregator did 10 substitutions.
Reduced MIP has 2505 rows, 2975 columns, and 7735 nonzeros.
Reduced MIP has 1195 binaries, 0 generals, 0 SOSs, and 0 indicators.
Presolve time = 0.01 sec. (8.48 ticks)
Probing fixed 0 vars, tightened 2342 bounds.
Probing time = 0.00 sec. (6.42 ticks)
Clique table members: 190.
MIP emphasis: heuristic.
MIP search method: dynamic search.
Parallel mode: deterministic, using up to 8 threads.
Root relaxation solution time = 0.01 sec. (9.13 ticks)

        Nodes                                         Cuts/
   Node  Left     Objective  IInf  Best Integer    Best Bound    ItCnt     Gap

      0     0   348385.3466   473                 348385.3466      882         
*     0+    0                       1.46041e+07   348385.3466            97.61%
*     0+    0                       1.01680e+07   348385.3466            96.57%
*     0+    0                      8094265.0000   348385.3466            95.70%
      0     0   494628.4462   636  8094265.0000     Cuts: 726     1907   93.88%
      0     0   650227.3430   645  8094265.0000     Cuts: 726     2853   91.97%
      0     0   782509.0366   639  8094265.0000     Cuts: 726     3633   90.33%
*     0+    0                      1943843.0000   782509.0366            59.74%
      0     0   900000.2152   612  1943843.0000     Cuts: 726     4408   50.24%
*     0+    0                      1791461.0000   967301.3289            46.00%
      0     0  1027366.7984   592  1791461.0000     Cuts: 726     5178   41.10%
Detecting symmetries...
      0     0  1143771.1166   599  1791461.0000     Cuts: 726     6055   36.15%
      0     0  1213479.1069   669  1791461.0000     Cuts: 726     6726   30.88%
      0     0  1282673.5937   653  1791461.0000     Cuts: 726     7383   26.96%
      0     0  1324497.8832   694  1791461.0000     Cuts: 726     8015   25.23%
*     0+    0                      1788605.0000  1339541.6768            25.11%
      0     0  1356060.9503   711  1788605.0000     Cuts: 726     8895   22.91%
*     0+    0                      1717321.0000  1378749.7541            19.72%
      0     0  1378578.1816   729  1717321.0000     Cuts: 726     9542   18.97%

Clique cuts applied:  0
Cover cuts applied:  12
Implied bound cuts applied:  24
Mixed integer rounding cuts applied:  1414
Flow path cuts applied:  43
Multi commodity flow cuts applied:  16
Gomory fractional cuts applied:  17

Root node processing (before b&c):
  Real time             =    5.01 sec. (8176.49 ticks)
Parallel b&c, 8 threads:
  Real time             =    0.00 sec. (0.00 ticks)
  Sync time (average)   =    0.00 sec.
  Wait time (average)   =    0.00 sec.
                          ------------
Total (root+branch&cut) =    5.01 sec. (8176.49 ticks)
Gap: 18.97%
Upper bound: 1.71732e+06
Lower bound: 1.39157e+06
End of CPLEX run. Time: 5.01443 seconds
